param n := 25;
param s := 7;
param t := 14;
set A :=
1 3 
1 4 
1 5 
1 13 
2 10 
2 12 
2 17 
2 21 
2 24 
3 5 
3 14 
3 16 
4 2 
4 3 
4 6 
4 17 
4 19 
5 8 
5 16 
6 11 
6 12 
6 15 
7 1 
7 4 
7 9 
7 11 
7 19 
7 21 
7 25 
8 1 
8 5 
8 6 
8 10 
8 23 
9 10 
9 13 
9 18 
10 2 
10 15 
10 16 
10 17 
10 19 
11 1 
11 10 
11 12 
11 16 
11 19 
11 22 
12 6 
13 22 
13 24 
15 5 
15 13 
15 22 
16 1 
16 13 
17 10 
17 19 
17 22 
17 24 
18 14 
18 17 
18 21 
19 9 
19 15 
19 20 
19 24 
20 2 
20 9 
20 21 
20 25 
21 5 
21 19 
21 25 
22 1 
22 18 
23 3 
23 4 
23 6 
24 4 
24 13 
24 18 
25 12 
25 18 
;
param: capacity:=
1 3 9.4 
1 4 6.8 
1 5 3.4 
1 13 4.5 
2 10 4.2 
2 12 8.3 
2 17 7.6 
2 21 8.7 
2 24 6.8 
3 5 3.2 
3 14 4.3 
3 16 5.2 
4 2 4.3 
4 3 4.5 
4 6 4.4 
4 17 8.7 
4 19 8.8 
5 8 3.7 
5 16 6.6 
6 11 9.3 
6 12 8.9 
6 15 6.0 
7 1 8.2 
7 4 8.8 
7 9 9.1 
7 11 5.6 
7 19 5.0 
7 21 3.4 
7 25 3.6 
8 1 6.3 
8 5 6.3 
8 6 7.2 
8 10 5.0 
8 23 4.2 
9 10 9.0 
9 13 3.7 
9 18 9.6 
10 2 4.2 
10 15 5.9 
10 16 3.8 
10 17 7.3 
10 19 9.5 
11 1 5.6 
11 10 6.3 
11 12 8.0 
11 16 9.6 
11 19 4.5 
11 22 6.9 
12 6 6.4 
13 22 7.1 
13 24 4.5 
15 5 7.6 
15 13 3.9 
15 22 7.7 
16 1 5.6 
16 13 5.2 
17 10 7.0 
17 19 5.9 
17 22 8.7 
17 24 6.2 
18 14 4.4 
18 17 3.6 
18 21 6.3 
19 9 5.9 
19 15 5.3 
19 20 9.9 
19 24 9.6 
20 2 7.7 
20 9 7.0 
20 21 5.9 
20 25 3.8 
21 5 4.8 
21 19 6.7 
21 25 5.0 
22 1 8.7 
22 18 6.4 
23 3 6.2 
23 4 8.2 
23 6 4.7 
24 4 8.7 
24 13 4.9 
24 18 5.6 
25 12 9.3 
25 18 3.0 
;
param: cost:=
1 3 7.5 
1 4 9.2 
1 5 2.1 
1 13 5.1 
2 10 5.3 
2 12 2.3 
2 17 8.9 
2 21 9.4 
2 24 5.6 
3 5 7.2 
3 14 5.4 
3 16 9.3 
4 2 9.9 
4 3 5.9 
4 6 3.1 
4 17 6.6 
4 19 5.8 
5 8 7.2 
5 16 8.4 
6 11 4.0 
6 12 2.5 
6 15 6.6 
7 1 8.7 
7 4 3.2 
7 9 6.1 
7 11 7.4 
7 19 5.1 
7 21 9.9 
7 25 5.0 
8 1 5.7 
8 5 2.0 
8 6 9.7 
8 10 5.3 
8 23 4.7 
9 10 6.4 
9 13 8.3 
9 18 5.2 
10 2 7.0 
10 15 6.3 
10 16 4.6 
10 17 4.4 
10 19 6.3 
11 1 5.5 
11 10 5.6 
11 12 6.0 
11 16 6.6 
11 19 6.1 
11 22 4.0 
12 6 9.9 
13 22 4.6 
13 24 2.6 
15 5 5.3 
15 13 2.3 
15 22 3.7 
16 1 9.3 
16 13 1.2 
17 10 5.1 
17 19 3.6 
17 22 6.6 
17 24 1.5 
18 14 9.0 
18 17 6.8 
18 21 6.6 
19 9 7.3 
19 15 2.4 
19 20 1.3 
19 24 7.7 
20 2 4.2 
20 9 6.9 
20 21 8.5 
20 25 4.6 
21 5 2.4 
21 19 4.9 
21 25 1.1 
22 1 5.9 
22 18 2.7 
23 3 1.6 
23 4 9.6 
23 6 5.3 
24 4 5.5 
24 13 4.3 
24 18 9.6 
25 12 1.1 
25 18 5.0 
;